
  22    4
  10   10   10   10

   0   0   0   0   0   8 2 4 5 6 7 8 10 11 
  10  10  10  10  10   4 21 17 12 3 
   4  10  10  10  10   4 20 19 14 9 
   1  10  10  10  10   5 20 19 18 16 13 
   2  10  10  10  10   3 18 12 9 
   1  10  10  10  10   3 17 14 9 
   7  10  10  10  10   3 17 16 13 
   6  10  10  10  10   3 18 14 13 
   8  10  10  10  10   2 16 13 
   3  10  10  10  10   2 17 13 
   4  10  10  10  10   2 16 13 
   9  10  10  10  10   1 13 
   7  10  10  10  10   1 15 
   2  10  10  10  10   1 15 
   1  10  10  10  10   1 22
   7  10  10  10  10   1 22
  10  10  10  10  10   1 22
   5  10  10  10  10   1 22
   7  10  10  10  10   1 22
   6  10  10  10  10   1 22
   6  10  10  10  10   1 22
   0   0   0   0   0   0 
